
   7    4
  10   10   10   10

   0   0   0   0   0   3 2 3 4 
  10  10  10  10  10   1 6 
   3  10  10  10  10   1 5 
   6  10  10  10  10   1 5 
   8  10  10  10  10   1 7
   8  10  10  10  10   1 7
   0   0   0   0   0   0 
